Route #1: 2 56 24 55 54 53 42 
Route #2: 8 39 20 57 23 14 32 58 12 
Route #3: 33 59 41 9 5 61 16 66 34 28 
Route #4: 21 18 19 52 35 44 
Route #5: 43 6 15 40 30 4 22 37 
Route #6: 46 36 45 65 60 49 26 38 31 
Route #7: 29 17 63 62 48 51 
Route #8: 64 47 27 11 3 7 
Route #9: 10 50 13 25 
cost 1360.96
